SCIP Status        : solving was interrupted [time limit reached]
Total Time         :    3600.04
  solving          :    3600.00
  presolving       :       0.23 (included in solving)
  reading          :       0.04
  copying          :       2.42 (48 #copies) (minimal 0.00, maximal 0.22, average 0.05)
Original Problem   :
  Problem name     : bbbenchmark/g05_100.9.cut
  Variables        : 101 (100 binary, 0 integer, 0 implicit integer, 1 continuous)
  Constraints      : 1 initial, 1 maximal
  Objective        : minimize, 1 non-zeros (abs.min = 1, abs.max = 1)
Presolved Problem  :
  Problem name     : t_bbbenchmark/g05_100.9.cut
  Variables        : 1801 (100 binary, 0 integer, 1685 implicit integer, 16 continuous)
  Constraints      : 1731 initial, 11733 maximal
  Objective        : minimize, 1 non-zeros (abs.min = 1, abs.max = 1)
  Nonzeros         : 8511 constraint, 202 clique table
Presolvers         :   ExecTime  SetupTime  Calls  FixedVars   AggrVars   ChgTypes  ChgBounds   AddHoles    DelCons    AddCons   ChgSides   ChgCoefs
  boundshift       :       0.00       0.00      0          0          0          0          0          0          0          0          0          0
  convertinttobin  :       0.00       0.00      0          0          0          0          0          0          0          0          0          0
  domcol           :       0.00       0.00      1          0          0          0          0          0          0          0          0          0
  dualagg          :       0.00       0.00      0          0          0          0          0          0          0          0          0          0
  dualcomp         :       0.00       0.00      1          0          0          0          0          0          0          0          0          0
  dualinfer        :       0.00       0.00      0          0          0          0          0          0          0          0          0          0
  dualsparsify     :       0.00       0.00      1          0          0          0          0          0          0          0          0          0
  gateextraction   :       0.00       0.00      0          0          0          0          0          0          0          0          0          0
  implics          :       0.00       0.00      2          0          0          0          0          0          0          0          0          0
  inttobinary      :       0.00       0.00      0          0          0          0          0          0          0          0          0          0
  qpkktref         :       0.00       0.00      0          0          0          0          0          0          0          0          0          0
  redvub           :       0.00       0.00      0          0          0          0          0          0          0          0          0          0
  sparsify         :       0.00       0.00      1          0          0          0          0          0          0          0          0          0
  stuffing         :       0.00       0.00      0          0          0          0          0          0          0          0          0          0
  trivial          :       0.00       0.00      4          0          0          0          0          0          0          0          0          0
  tworowbnd        :       0.00       0.00      0          0          0          0          0          0          0          0          0          0
  dualfix          :       0.00       0.00      4          0          0          0          0          0          0          0          0          0
  genvbounds       :       0.00       0.00      0          0          0          0          0          0          0          0          0          0
  probing          :       0.14       0.00      1          0          0          0          0          0          0          0          0          0
  pseudoobj        :       0.00       0.00      1          0          0          0          1          0          0          0          0          0
  symmetry         :       0.00       0.00      0          0          0          0          0          0          0          0          0          0
  vbounds          :       0.00       0.00      1          0          0          0          0          0          0          0          0          0
  varbound         :       0.00       0.00      2          0          0          0          0          0          0          0          0          0
  and              :       0.01       0.00      2          0          0          0          0          0          0          0          0          0
  linear           :       0.00       0.00      2          0          0          0          0          0          0          0          0          0
  logicor          :       0.00       0.00      0          0          0          0          0          0          0          0          0          0
  bounddisjunction :       0.00       0.00      0          0          0          0          0          0          0          0          0          0
  nonlinear        :       0.07       0.00      5          0          0          0          1          0          0       1730          0          0
  benders          :       0.00       0.00      0          0          0          0          0          0          0          0          0          0
  components       :       0.00       0.00      1          0          0          0          0          0          0          0          0          0
  root node        :          -          -      -          0          -          -         13          -          -          -          -          -
Constraints        :     Number  MaxNumber  #Separate #Propagate    #EnfoLP    #EnfoRelax  #EnfoPS    #Check   #ResProp    Cutoffs    DomReds       Cuts    Applied      Conss   Children
  benderslp        :          0          0          0          0     147020          0          0      13932          0          0          0          0          0          0          0
  integral         :          0          0          0          0     147020          0          0      13932          0          0          4          0          0          3     294028
  varbound         :         15         15        166     965392          0          0          0         22          0          0      96661          0          0          0          0
  and              :       1685       1685     164656    1037876          2          0          0         22     695132          0     790499        350        344          0          0
  linear           :         31+        43        166    1037948          2          0          0         20       1711         62     487435          0          0          0          0
  logicor          :          0+      9599          0     127698          0          0          0          0         16        534         36          0          0          0          0
  bounddisjunction :          0+      1999          0      91807          0          0          0          0         14         87          3          0          0          0          0
  benders          :          0          0          0          0          2          0          0         23          0          0          0          0          0          0          0
  countsols        :          0          0          0          0          2          0          0         23          0          0          0          0          0          0          0
  components       :          0          0          0          0          0          0          0          0          0          0          0          0          0          0          0
Constraint Timings :  TotalTime  SetupTime   Separate  Propagate     EnfoLP     EnfoPS     EnfoRelax   Check    ResProp    SB-Prop
  benderslp        :       0.18       0.00       0.00       0.00       0.16       0.00       0.00       0.02       0.00       0.00
  integral         :      59.12       0.00       0.00       0.00      59.12       0.00       0.00       0.00       0.00       0.00
  varbound         :       1.56       0.00       0.00       1.55       0.00       0.00       0.00       0.00       0.00       0.01
  and              :     121.84       0.00      87.92      32.86       0.00       0.00       0.00       0.00       0.51       0.55
  linear           :       4.97       0.00       0.03       4.88       0.00       0.00       0.00       0.00       0.02       0.04
  logicor          :      23.37       0.00       0.00      23.34       0.00       0.00       0.00       0.00       0.00       0.03
  bounddisjunction :       5.00       0.00       0.00       5.00       0.00       0.00       0.00       0.00       0.00       0.00
  benders          :       0.00       0.00       0.00       0.00       0.00       0.00       0.00       0.00       0.00       0.00
  countsols        :       0.00       0.00       0.00       0.00       0.00       0.00       0.00       0.00       0.00       0.00
  components       :       0.28       0.00       0.00       0.27       0.00       0.00       0.00       0.00       0.00       0.01
Propagators        : #Propagate   #ResProp    Cutoffs    DomReds
  dualfix          :          4          0          0          0
  genvbounds       :          0          0          0          0
  nlobbt           :          0          0          0          0
  obbt             :          0          0          0          0
  probing          :          0          0          0          0
  pseudoobj        :     586595          0          0        244
  redcost          :     321420          0          0      66786
  rootredcost      :         14          0          0          0
  symmetry         :          0          0          0          0
  vbounds          :     160191          0          0          0
Propagator Timings :  TotalTime  SetupTime   Presolve  Propagate    ResProp    SB-Prop
  dualfix          :       0.00       0.00       0.00       0.00       0.00       0.00
  genvbounds       :       0.57       0.00       0.00       0.57       0.00       0.00
  nlobbt           :       0.00       0.00       0.00       0.00       0.00       0.00
  obbt             :       0.00       0.00       0.00       0.00       0.00       0.00
  probing          :       0.14       0.00       0.14       0.00       0.00       0.00
  pseudoobj        :       0.81       0.00       0.00       0.81       0.00       0.00
  redcost          :      13.13       0.00       0.00      13.13       0.00       0.00
  rootredcost      :       0.61       0.00       0.00       0.61       0.00       0.00
  symmetry         :       0.43       0.00       0.00       0.43       0.00       0.00
  vbounds          :       0.66       0.00       0.00       0.66       0.00       0.00
Conflict Analysis  :       Time      Calls    Success    DomReds  Conflicts   Literals    Reconvs ReconvLits   Dualrays   Nonzeros   LP Iters   (pool size: [10000,10000])
  propagation      :       0.02        621        448          -        535       63.4          0        0.0          -          -          -
  infeasible LP    :       0.05         51         51          -       2177      148.5          0        0.0         95      173.1          0
  bound exceed. LP :      24.46       8158       7692          -     198556      108.0          0        0.0          0        0.0      64456
  strong branching :       0.00          0          0          -          0        0.0          0        0.0          -          -          0
  pseudo solution  :       0.00          0          0          -          0        0.0          0        0.0          -          -          -
  applied globally :       0.76          -          -          0      45076      116.8          -          -         95          -          -
  applied locally  :          -          -          -          0          0        0.0          -          -          0          -          -
Separators         :   ExecTime  SetupTime      Calls  RootCalls    Cutoffs    DomReds  FoundCuts ViaPoolAdd  DirectAdd    Applied ViaPoolApp  DirectApp      Conss
  cut pool         :       4.70          -      34593        192          -          -      37221    2045273          -          -          -          -          -    (maximal pool size:       4132)
  aggregation      :      52.39       0.00       5475        166          0          0         12         58          0         28         28          0          0
  > cmir           :          -          -          -          -          -          -          -         58          0         28         28          0          -
  > flowcover      :          -          -          -          -          -          -          -          0          0          0          0          0          -
  > knapsackcover  :          -          -          -          -          -          -          -          0          0          0          0          0          -
  cgmip            :       0.00       0.00          0          0          0          0          0          0          0          0          0          0          0
  clique           :       0.01       0.00        166        166          0          0          0          0          0          0          0          0          0
  closecuts        :       0.00       0.00          0          0          0          0          0          0          0          0          0          0          0
  convexproj       :       0.00       0.00          0          0          0          0          0          0          0          0          0          0          0
  disjunctive      :       0.00       0.00          0          0          0          0          0          0          0          0          0          0          0
  eccuts           :       0.00       0.00          0          0          0          0          0          0          0          0          0          0          0
  gauge            :       0.00       0.00          0          0          0          0          0          0          0          0          0          0          0
  gomory           :       0.00       0.00          0          0          0          0          0          0          0          0          0          0          0
  > gomorymi       :          -          -          -          -          -          -          -          0          0          0          0          0          -
  > strongcg       :          -          -          -          -          -          -          -          0          0          0          0          0          -
  impliedbounds    :       0.24       0.00       5475        166          0          0          0          0          0          0          0          0          0
  interlattice     :       1.00       0.00        140        140          0          0        140          0        140        138          0        138          0
  interminor       :       0.00       0.00          0          0          0          0          0          0          0          0          0          0          0
  intersub         :       0.29       0.00          6          6          0          0          2          0          2          2          0          2          0
  intobj           :       0.00       0.00          0          0          0          0          0          0          0          0          0          0          0
  mcf              :       0.00       0.00          1          1          0          0          0          0          0          0          0          0          0
  minor            :       0.00       0.00          0          0          0          0          0          0          0          0          0          0          0
  mixing           :       0.02       0.00       5475        166          0          0          0          0          0          0          0          0          0
  oddcycle         :       0.00       0.00          0          0          0          0          0          0          0          0          0          0          0
  rapidlearning    :       0.01       0.00          0          0          0          0          0          0          0          0          0          0          0
  rlt              :       0.00       0.00         10         10          0          0          0          0          0          0          0          0          0
  zerohalf         :      24.62       0.00       4552         20          0          0      37209    2045215          0     206509     206509          0          0
Cutselectors       :   ExecTime  SetupTime      Calls  RootCalls   Selected     Forced   Filtered  RootSelec   RootForc   RootFilt 
  hybrid           :       1.47       0.00      17202        166     207021          0    1838744        324          0         22
Pricers            :   ExecTime  SetupTime      Calls       Vars
  problem variables:       0.00          -          0          0
Branching Rules    :   ExecTime  SetupTime   BranchLP  BranchExt   BranchPS    Cutoffs    DomReds       Cuts      Conss   Children
  allfullstrong    :       0.00       0.00          0          0          0          0          0          0          0          0
  cloud            :       0.00       0.00          0          0          0          0          0          0          0          0
  distribution     :       0.00       0.00          0          0          0          0          0          0          0          0
  fullstrong       :       0.00       0.00          0          0          0          0          0          0          0          0
  inference        :       0.00       0.00          0          0          0          0          0          0          0          0
  leastinf         :       0.00       0.00          0          0          0          0          0          0          0          0
  lookahead        :       0.00       0.00          0          0          0          0          0          0          0          0
  mostinf          :       0.00       0.00          0          0          0          0          0          0          0          0
  multaggr         :       0.00       0.00          0          0          0          0          0          0          0          0
  nodereopt        :       0.00       0.00          0          0          0          0          0          0          0          0
  pscost           :       0.00       0.00          0          0          0          0          0          0          0          0
  random           :       0.00       0.00          0          0          0          0          0          0          0          0
  relpscost        :      58.63       0.00     147018          0          0          0          4          0          3     294028
  vanillafullstrong:       0.00       0.00          0          0          0          0          0          0          0          0
Primal Heuristics  :   ExecTime  SetupTime      Calls      Found       Best
  LP solutions     :       0.00          -          -          2          2
  relax solutions  :       0.00          -          -          0          0
  pseudo solutions :       0.00          -          -          0          0
  strong branching :       0.01          -          -          0          0
  actconsdiving    :       0.00       0.00          0          0          0
  adaptivediving   :       3.91       0.00         35          0          0
  alns             :       3.12       0.00         19          2          2
  bound            :       0.00       0.00          0          0          0
  clique           :       0.01       0.00          1          0          0
  coefdiving       :       0.00       0.00          0          0          0
  completesol      :       0.00       0.00          0          0          0
  conflictdiving   :     215.03       0.00       1833          1          1
  crossover        :       0.15       0.00          2          1          1
  dins             :       0.00       0.00          0          0          0
  distributiondivin:      92.09       0.00        489          0          0
  dps              :       0.00       0.00          0          0          0
  dualval          :       0.00       0.00          0          0          0
  farkasdiving     :       0.01       0.00          0          0          0
  feaspump         :       0.40       0.00          1          1          1
  fixandinfer      :       0.00       0.00          0          0          0
  fracdiving       :      73.00       0.00        678          0          0
  gins             :       0.16       0.00          0          0          0
  guideddiving     :      74.45       0.00        671          2          2
  indicator        :       0.15       0.00          0          0          0
  indicatordiving  :       0.00       0.00          0          0          0
  intdiving        :       0.00       0.00          0          0          0
  intshifting      :       0.73       0.00        119          0          0
  linesearchdiving :      69.47       0.00        607          0          0
  localbranching   :       0.00       0.00          0          0          0
  locks            :       0.01       0.00          1          0          0
  lpface           :       0.16       0.00          0          0          0
  mpec             :      66.72       0.00         11          4          4
  multistart       :       0.00       0.00          0          0          0
  mutation         :       0.00       0.00          0          0          0
  nlpdiving        :      14.12       0.00          2          0          0
  objpscostdiving  :      57.48       0.00         93          4          1
  octane           :       0.00       0.00          0          0          0
  ofins            :       0.17       0.00          0          0          0
  oneopt           :       0.10       0.00         18          0          0
  padm             :       0.00       0.00          0          0          0
  proximity        :       0.00       0.00          0          0          0
  pscostdiving     :      68.28       0.00        561          0          0
  randrounding     :       1.39       0.00      13906          0          0
  rens             :       0.00       0.00          0          0          0
  reoptsols        :       0.00       0.00          0          0          0
  repair           :       0.00       0.00          0          0          0
  rins             :       3.80       0.00         26          0          0
  rootsoldiving    :      34.18       0.00         50          0          0
  rounding         :       0.87       0.00       5616          0          0
  shiftandpropagate:       0.00       0.00          0          0          0
  shifting         :      29.54       0.00      10665          2          2
  simplerounding   :       0.09       0.00          0          0          0
  subnlp           :     158.72       0.00          0          0          0
  trivial          :       0.01       0.00          2          2          2
  trivialnegation  :       0.00       0.00          0          0          0
  trustregion      :       0.00       0.00          0          0          0
  trysol           :       0.18       0.00          0          0          0
  twoopt           :       0.00       0.00          0          0          0
  undercover       :       2.53       0.00          1          1          1
  vbounds          :       0.00       0.00          0          0          0
  veclendiving     :      71.51       0.00        581          0          0
  zeroobj          :       0.00       0.00          0          0          0
  zirounding       :       0.27       0.00       1000          0          0
  other solutions  :          -          -          -          0          -
Diving (single)    :      Calls      Nodes   LP Iters Backtracks  Conflicts   MinDepth   MaxDepth   AvgDepth  RoundSols  NLeafSols  MinSolDpt  MaxSolDpt  AvgSolDpt
  actconsdiving    :          0          -          -          -          -          -          -          -          -          -          -          -          -
  coefdiving       :          0          -          -          -          -          -          -          -          -          -          -          -          -
  conflictdiving   :       1833      79018    2451642       2015     107196         52         87       64.4          0          1         85         85       85.0
  distributiondivin:        489      19016     826107        546       8781         50         70       58.9          0          -          -          -          -
  farkasdiving     :          0          -          -          -          -          -          -          -          -          -          -          -          -
  fracdiving       :        678      92977     821699        158       1175         58        297      157.8          0          -          -          -          -
  guideddiving     :        671      78172     846650         49       1635         57        271      138.1          0          2        134        145      139.5
  indicatordiving  :          0          -          -          -          -          -          -          -          -          -          -          -          -
  linesearchdiving :        607      23994     823273        536      30273         37         95       60.4          0          -          -          -          -
  pscostdiving     :        561      25735     824978        578      14495         56         78       66.9          0          -          -          -          -
  veclendiving     :        581      24002     823690        557      36350         53         88       60.8          0          -          -          -          -
Diving (adaptive)  :      Calls      Nodes   LP Iters Backtracks  Conflicts   MinDepth   MaxDepth   AvgDepth  RoundSols  NLeafSols  MinSolDpt  MaxSolDpt  AvgSolDpt
  actconsdiving    :          3        123       4615          3         34         54         62       58.3          0          -          -          -          -
  coefdiving       :         12        519      15086          8        713         53         78       64.2          0          -          -          -          -
  conflictdiving   :          0          -          -          -          -          -          -          -          -          -          -          -          -
  distributiondivin:          0          -          -          -          -          -          -          -          -          -          -          -          -
  farkasdiving     :          0          -          -          -          -          -          -          -          -          -          -          -          -
  fracdiving       :          2        247       2359          0          0        122        157      139.5          0          -          -          -          -
  guideddiving     :          4        417       5026          0         13        104        164      123.5          0          -          -          -          -
  indicatordiving  :          0          -          -          -          -          -          -          -          -          -          -          -          -
  linesearchdiving :         10        434      15549          8        540         49         73       60.9          0          -          -          -          -
  pscostdiving     :          2         94       3096          2         50         61         69       65.0          0          -          -          -          -
  veclendiving     :          2         78       2978          2         98         57         60       58.5          0          -          -          -          -
Neighborhoods      :      Calls  SetupTime  SolveTime SolveNodes       Sols       Best       Exp3  EpsGreedy        UCB TgtFixRate  Opt  Inf Node Stal  Sol  Usr Othr Actv
  rens             :          4       0.34       0.43         69          0          0    0.00000   -1.00000    0.46288      0.522    0    3    0    1    0    0    0    1
  rins             :          2       0.13       0.06         81          0          0    0.00000   -1.00000    0.46445      0.850    0    1    0    1    0    0    0    1
  mutation         :          3       0.12       0.46        505          1          1    0.00000   -1.00000    0.49447      0.662    1    1    0    1    0    0    0    1
  localbranching   :          2       0.06       0.04         65          0          0    0.00000   -1.00000    0.46274      0.850    0    1    0    1    0    0    0    1
  crossover        :          3       0.37       0.36        826          1          1    0.00000   -1.00000    0.50599      0.737    1    1    0    1    0    0    0    1
  proximity        :          1       0.02       0.04         88          0          0    0.00000   -1.00000    0.48123      0.900    0    0    0    1    0    0    0    1
  zeroobjective    :          2       0.34       0.05        105          0          0    0.00000   -1.00000    0.45645      0.850    0    1    0    1    0    0    0    1
  dins             :          2       0.11       0.05         78          0          0    0.00000   -1.00000    0.46445      0.850    0    1    0    1    0    0    0    1
  trustregion      :          0       0.00       0.00          0          0          0    0.00000   -1.00000    1.00000      0.900    0    0    0    0    0    0    0    0
Expressions        :   #IntEval  IntEvalTi   #RevProp  RevPropTi    DomReds    Cutoffs  #Estimate  EstimTime  Branching  #Simplify SimplifyTi Simplified
  pow              :          0       0.00          0       0.00          0          0          0       0.00          0          0       0.00          0
  prod             :       9900       0.02          0       0.00          0          0          0       0.00          0       6635       0.00          0
  sum              :          8       0.00          2       0.00          0          0          0       0.00          0          3       0.03          2
  var              :       6212       0.00          0       0.00          0          0          0       0.00          0      15273       0.00          0
  varidx           :          0       0.00          0       0.00          0          0          0       0.00          0          0       0.00          0
LP                 :       Time      Calls Iterations  Iter/call   Iter/sec  Time-0-It Calls-0-It    ItLimit
  primal LP        :     146.80      24074          0       0.00       0.00     146.68      24074
  dual LP          :    1905.43     240861   16170108      70.10    8486.33       2.79      10177
  lex dual LP      :       0.00          0          0       0.00          -
  barrier LP       :       0.00          0          0       0.00          -       0.00          0
  resolve instable :       0.00          0          0       0.00          -
  diving/probing LP:     649.03      25250    8132326     322.07   12529.97
  strong branching :      25.03       1800     278793     154.88   11138.35          -          -        791
    (at root node) :          -         21       6331     301.48          -
  conflict analysis:       7.97       6609      64456       9.75    8087.33
NLP relaxation     :
  solve time       :      13.74 (6 calls)
  convexity        :  nonconvex (46 linear rows, 0 convex ineq., 0 nonconvex ineq., 1685 nonlinear eq. or two-sided ineq.)
NLP Solvers        :  #Problems  ProblemTi    #Solves  SolveTime      #Iter  Time/Iter      #Okay #TimeLimit #IterLimit #LObjLimit #Interrupt  #NumError #EvalError  #OutOfMem #LicenseEr #OtherTerm   #GlobOpt    #LocOpt  #Feasible #LocInfeas #GlobInfea #Unbounded   #Unknown
  ipopt            :         12       8.21         44      82.15       1970       0.04         41          0          3          0          0          0          0          0          0          0          0         31          1          9          0          0          3
B&B Tree           :
  number of runs   :          1
  nodes            :     213476 (147014 internal, 66462 leaves)
  feasible leaves  :          2
  infeas. leaves   :          2
  objective leaves :      66458
  nodes (total)    :     213476 (147014 internal, 66462 leaves)
  nodes left       :      80109
  max depth        :         59
  max depth (total):         59
  backtracks       :      47850 (22.4%)
  early backtracks :          0 (0.0%)
  nodes exc. ref.  :          0 (0.0%)
  delayed cutoffs  :          4
  repropagations   :        684 (99 domain reductions, 0 cutoffs)
  avg switch length:       6.82
  switching time   :     196.58
Estim. Tree Size   :     427840
Estimation Tree    : 294029 nodes (213920 visited, 147014 internal, 66906 leaves, 80109 open), weight: 0.0000 completed 0.1440
Estimations        :      estim      value      trend resolution     smooth
  wbe              : 3206139896350349          -          -          -          -
  tree-profile     :         -1          -          -          -          -
  gap              :    1004030    0.68260    0.00009        128     989130
  tree-weight      :     427840    0.00000    0.00000        128     425133
  leaf-frequency   :     427840    0.31276   -0.00021        128     425133
  ssg              :     881816    0.77270   -0.00026        128     862477
  open-nodes       :     427840 80109.00000  498.07118        128     425133
Root Node          :
  First LP value   : -1.00000000000000e+00
  First LP Iters   :       1688 (11253.33 Iter/sec)
  First LP Time    :       0.15
  Final Dual Bound : -9.45135583132357e-01
  Final Root Iters :       4642
  Root LP Estimate : -3.14774897164081e-01
Solution           :
  Solutions found  :         22 (19 improvements)
  First Solution   : +1.00000000000000e+05   (in run 1, after 0 nodes, 0.01 seconds, depth 0, found by <trivial>)
  Gap First Sol.   :   infinite
  Gap Last Sol.    :      48.22 %
  Primal Bound     : -5.61616161616159e-01   (in run 1, after 142356 nodes, 1371.11 seconds, depth 30, found by <crossover>)
  Dual Bound       : -8.22755419262318e-01
  Gap              :      46.50 %
Integrals          :      Total       Avg%
  primal-dual      :  120671.73      33.52
  primal-ref       :          -          - (not evaluated)
  dual-ref         :          -          - (not evaluated)
